c read Graph
c width = 276
c time = 419 ms
c width = 26
c time = 719 ms
c width = 24
c time = 914 ms
c width = 23
c time = 2588 ms
c width = 22
c time = 3524 ms
c width = 21
c time = 7105 ms
c width = 20
c time = 11656 ms
c width = 20
c time = 299866 ms
s td 535 21 624
b 1 20 170 552
b 2 239 551 552
b 3 22 550 551
b 4 111 549 550
b 5 50 504
b 6 25 430
b 7 49 449
b 8 256 259
b 9 89 622
b 10 214 622 623
b 11 172 522
b 12 160 522 523
b 13 39 523 524
b 14 134 524 525
b 15 87 553
b 16 16 117 398 399
b 17 93 250 403 404
b 18 202 426 502 503
b 19 254 431 432 505
b 20 165 261 262 450
b 21 154 262 263 264
b 22 14 266 267 268
b 23 203 268 269 272
b 24 135 272 273 274
b 25 116 274 275 276
b 26 164 277 278 279
b 27 181 282 283 284
b 28 98 285 286 288
b 29 24 288 289 292
b 30 146 292 293 298
b 31 226 298 299 300
b 32 250 300 301 302
b 33 147 303 304 305
b 34 141 305 306 307
b 35 192 307 308 309
b 36 96 309 310 316
b 37 117 316 317 318
b 38 230 319 320 321
b 39 225 321 322 323
b 40 162 325 326 327
b 41 30 329 330 331
b 42 51 332 333 334
b 43 177 334 335 338
b 44 106 341 342 343
b 45 124 343 344 345
b 46 206 345 346 348
b 47 119 349 350 351
b 48 67 351 352 353
b 49 8 353 354 355
b 50 198 355 356 359
b 51 94 359 360 362
b 52 71 362 363 364
b 53 23 368 369 370
b 54 208 370 371 373
b 55 63 373 374 376
b 56 80 379 380 381
b 57 108 385 386 389
b 58 107 389 390 393
b 59 103 394 395 397
b 60 117 398 399 400
b 61 97 401 402 403
b 62 231 405 406 408
b 63 222 413 414 421
b 64 244 421 422 425
b 65 223 431 432 505
b 66 102 206 556 557
b 67 102 206 557 564
b 68 67 564 565 567
b 69 97 567 568 570
b 70 192 570 571 576
b 71 231 576 577 585
b 72 59 586 587 588
b 73 23 589 590 594
b 74 208 594 595 596
b 75 195 596 597 598
b 76 13 599 600 609
b 77 205 612 613 614
b 78 114 614 615 616
b 79 103 618 619 621
b 80 58 106 340 341 621
b 81 106 340 341 343 621
b 82 106 340 343 345 503 621
b 83 114 340 345 425 502 503 621
b 84 114 425 426 502 503
b 85 114 292 298 334 340 345 425 498 502 621
b 86 51 114 288 292 298 331 334 345 425 498 612 617 621
b 87 51 114 288 292 331 334 612 614 617
b 88 114 288 292 614 616 617
b 89 24 288 292 616 617
b 90 51 331 332 334 612 614
b 91 205 331 332 612 614
b 92 51 98 114 227 288 298 331 345 385 397 425 494 498 612 617 621
b 93 51 98 114 227 385 389 397 494 498 617 621
b 94 227 389 394 397 617 618 621
b 95 227 389 393 394 617 618
b 96 107 389 393 617 618
b 97 103 394 397 618 621
b 98 51 98 114 385 389 494 496 498
b 99 51 98 494 495 496
b 100 114 385 389 496 497 498
b 101 108 385 389 496 497
b 102 51 98 129 227 288 298 331 345 381 385 397 425 493 494 609 612
b 103 51 98 129 223 227 282 288 298 328 331 345 381 397 421 425 487 493 609
b 104 98 129 223 282 284 288 328 331 421 425 487 489 493
b 105 98 129 223 284 288 328 331 489 492 493
b 106 129 223 328 331 489 491 492
b 107 129 223 489 490 491
b 108 223 328 329 331 491 492
b 109 30 329 331 491 492
b 110 98 284 285 288 492 493
b 111 182 284 285 492 493
b 112 282 284 421 425 487 488 489
b 113 244 421 425 488 489
b 114 181 282 284 487 488
b 115 51 80 98 162 223 227 246 282 298 324 328 345 377 381 397 421 478 482 487 598 609
b 116 19 51 80 98 162 223 227 246 276 282 298 324 345 373 377 397 421 478 482 598 609
b 117 19 276 280 282 373 377 478 481 482 598 609
b 118 276 280 373 377 478 480 481 598 599 609
b 119 276 279 280 478 480 598 599
b 120 276 277 279 478 479 480
b 121 158 276 277 478 479
b 122 164 277 279 479 480
b 123 251 279 280 598 599
b 124 373 376 377 480 481 599 609
b 125 13 376 377 599 609
b 126 63 373 376 480 481
b 127 19 280 281 282 481 482
b 128 166 280 281 481 482
b 129 19 51 80 98 162 223 227 246 276 298 323 324 345 368 373 397 421 478 510 589 598
b 130 19 51 80 98 162 180 223 227 246 276 298 323 345 365 368 397 421 437 478 510 589
b 131 6 51 60 98 180 223 365 368 437 510
b 132 6 51 60 98 180 223 437 508 510
b 133 6 51 60 98 180 223 435 437 508
b 134 51 60 180 223 435 506 508
b 135 51 60 180 223 433 435 506
b 136 180 223 433 505 506
b 137 180 223 432 433 505
b 138 51 60 433 434 435
b 139 51 60 506 507 508
b 140 6 98 435 436 437
b 141 6 98 508 509 510
b 142 6 60 180 365 367 368
b 143 6 180 365 366 367
b 144 19 80 162 180 227 246 276 298 319 323 345 364 365 397 421 437 478 510 585 589
b 145 319 323 364 365 585 586 588 589
b 146 59 364 365 586 588
b 147 319 321 323 585 586 588 589
b 148 225 321 323 588 589
b 149 230 319 321 585 586
b 150 19 80 162 180 227 246 276 298 318 319 345 364 397 412 421 437 474 478 510 585
b 151 180 318 319 412 421 474 475 478
b 152 18 318 319 474 475
b 153 180 412 413 421 475 477 478
b 154 222 413 421 477 478
b 155 180 412 413 475 476 477
b 156 237 412 413 475 476
b 157 19 80 162 227 246 276 298 318 345 364 397 412 437 474 510 513 585
b 158 19 80 115 123 162 227 246 250 276 298 318 345 364 397 412 437 474 510 513 585
b 159 115 123 250 510 511 513
b 160 123 250 511 512 513
b 161 19 80 115 123 162 227 246 250 276 298 318 345 364 397 412 437 438 474 513 585
b 162 19 80 115 123 162 227 246 250 276 298 318 345 364 397 412 438 440 474 513 585
b 163 19 80 115 123 162 227 246 250 276 298 318 345 364 397 412 440 441 474 513 585
b 164 19 80 115 123 162 227 246 250 276 298 318 345 364 397 412 441 474 513 514 585
b 165 19 80 115 123 162 246 250 276 298 318 345 364 397 412 441 442 474 513 514 585
b 166 19 80 115 123 162 246 250 276 298 318 345 364 397 412 442 474 514 515 516 585
b 167 19 80 94 115 123 246 250 276 298 318 345 364 397 412 442 474 514 515 516 585
b 168 19 80 94 115 116 123 246 250 276 298 318 345 364 397 408 412 442 469 474 516 585
b 169 116 408 412 469 474 516 585
b 170 116 408 410 412 469 472 474
b 171 116 408 410 469 471 472
b 172 408 409 410 469 470 471
b 173 236 408 409 470 471
b 174 139 409 410 469 470
b 175 410 411 412 472 473 474
b 176 216 411 412 473 474
b 177 183 410 411 472 473
b 178 19 80 94 115 116 123 246 250 272 276 298 318 345 364 397 408 442 468 469 516 585
b 179 116 272 274 276 468 469
b 180 135 272 274 468 469
b 181 19 80 94 115 116 123 246 250 272 298 318 345 364 397 408 442 468 516 519 585
b 182 19 80 85 94 115 116 123 246 250 272 298 318 345 364 397 408 442 468 516 519 585
b 183 19 80 85 94 115 116 123 246 250 272 298 318 345 364 397 408 442 444 468 519 585
b 184 85 94 442 443 444
b 185 19 85 246 516 518 519
b 186 19 85 516 517 518
b 187 123 250 438 439 440
b 188 323 324 368 373 589 596 598
b 189 195 323 324 596 598
b 190 368 370 373 589 594 596
b 191 23 368 370 589 594
b 192 208 370 373 594 596
b 193 80 162 246 324 328 377 381 482 484 487
b 194 80 246 377 379 381 484 487
b 195 246 377 378 379 484 486 487
b 196 150 378 379 486 487
b 197 246 377 378 484 485 486
b 198 74 377 378 484 485
b 199 162 246 324 325 328 482 484
b 200 162 246 325 327 328
b 201 162 324 325 482 483 484
b 202 91 324 325 483 484
b 203 129 381 383 385 493 494 609 611 612
b 204 129 381 383 609 610 611
b 205 129 381 382 383 609 610
b 206 144 381 382 609 610
b 207 383 384 385 493 494 611 612
b 208 53 384 385 611 612
b 209 240 383 384 493 494
b 210 292 298 334 340 498 499 500 502
b 211 146 292 298 499 500
b 212 334 338 340 498 499 500 502
b 213 338 339 340 500 501 502
b 214 1 339 340 501 502
b 215 168 338 339 500 501
b 216 177 334 338 498 499
b 217 106 124 343 345 503
b 218 7 71 80 85 115 116 123 250 272 298 318 345 359 397 408 446 468 519 585
b 219 71 80 85 94 115 116 123 250 272 298 318 345 359 364 397 408 446 468 519 585
b 220 19 80 85 94 115 116 123 246 250 272 298 318 345 364 397 408 444 446 468 519 585
b 221 71 94 359 362 364
b 222 7 71 80 116 519 521
b 223 7 116 519 520 521
b 224 7 85 115 123 250 264 272 298 318 345 353 359 397 408 459 466 468 585
b 225 85 115 123 206 250 264 298 307 318 345 351 353 397 408 459 466 468 585
b 226 115 123 206 250 264 298 300 307 345 351 456 459
b 227 123 250 300 303 307 456 459
b 228 250 303 307 456 457 459
b 229 303 305 307 457 458 459
b 230 147 303 305 457 458
b 231 141 305 307 458 459
b 232 123 250 300 302 303
b 233 115 206 264 298 300 345 351 454 456
b 234 115 206 264 453 454
b 235 115 206 298 300 345 349 351 454 456
b 236 298 300 349 351 454 455 456
b 237 119 349 351 455 456
b 238 226 298 300 454 455
b 239 115 206 345 348 349
b 240 85 206 250 307 316 318 351 353 397 404 408 466 468 570 585
b 241 85 206 250 316 318 351 353 397 398 404 567 570
b 242 206 351 353 397 398 564 567
b 243 102 206 397 398 564
b 244 67 351 353 564 567
b 245 85 250 316 318 398 401 404 567 570
b 246 85 316 318 398 400 401
b 247 117 316 318 398 400
b 248 250 401 403 404 567 570
b 249 97 401 403 567 570
b 250 307 316 404 408 466 467 468 570 576 585
b 251 307 309 316 466 467 570 576
b 252 96 309 316 466 467
b 253 192 307 309 570 576
b 254 404 405 408 467 468 576 585
b 255 231 405 408 576 585
b 256 218 404 405 467 468
b 257 7 85 264 266 272 353 359 459 462 466
b 258 266 268 272 353 359 462 465 466
b 259 266 268 353 355 359 462 464 465
b 260 198 355 359 464 465
b 261 266 268 353 355 462 463 464
b 262 14 266 268 463 464
b 263 8 353 355 462 463
b 264 203 268 272 465 466
b 265 7 85 264 266 459 460 462
b 266 7 264 266 460 461 462
b 267 7 264 265 266 460 461
b 268 56 264 265 460 461
b 269 7 71 80 116 446 448
b 270 7 116 446 447 448
b 271 19 246 444 445 446
b 272 206 262 264 452 453
b 273 154 262 264 452 453
b 274 206 262 450 451 452
b 275 165 262 450 451 452
b 276 207 620 621
b 277 619 620 621
b 278 131 619 620
b 279 187 615 616
b 280 61 613 614
b 281 211 608 609
b 282 600 608 609
b 283 151 607 608
b 284 600 607 608
b 285 33 606 607
b 286 600 606 607
b 287 45 605 606
b 288 600 605 606
b 289 82 604 605
b 290 600 604 605
b 291 109 603 604
b 292 600 603 604
b 293 100 602 603
b 294 600 602 603
b 295 54 601 602
b 296 600 601 602
b 297 104 600 601
b 298 42 597 598
b 299 258 595 596
b 300 77 593 594
b 301 590 593 594
b 302 76 592 593
b 303 590 592 593
b 304 12 591 592
b 305 590 591 592
b 306 148 590 591
b 307 17 587 588
b 308 66 584 585
b 309 577 584 585
b 310 112 583 584
b 311 577 583 584
b 312 92 582 583
b 313 577 582 583
b 314 3 581 582
b 315 577 581 582
b 316 186 580 581
b 317 577 580 581
b 318 243 579 580
b 319 577 579 580
b 320 161 578 579
b 321 577 578 579
b 322 37 577 578
b 323 29 575 576
b 324 571 575 576
b 325 41 574 575
b 326 571 574 575
b 327 68 573 574
b 328 571 573 574
b 329 11 572 573
b 330 571 572 573
b 331 174 571 572
b 332 159 569 570
b 333 568 569 570
b 334 5 568 569
b 335 2 566 567
b 336 565 566 567
b 337 132 565 566
b 338 95 563 564
b 339 557 563 564
b 340 176 562 563
b 341 557 562 563
b 342 48 561 562
b 343 557 561 562
b 344 189 560 561
b 345 557 560 561
b 346 34 559 560
b 347 557 559 560
b 348 248 558 559
b 349 557 558 559
b 350 155 557 558
b 351 44 424 425
b 352 422 424 425
b 353 52 423 424
b 354 422 423 424
b 355 90 422 423
b 356 169 420 421
b 357 414 420 421
b 358 143 419 420
b 359 414 419 420
b 360 35 418 419
b 361 414 418 419
b 362 128 417 418
b 363 414 417 418
b 364 120 416 417
b 365 414 416 417
b 366 27 415 416
b 367 414 415 416
b 368 197 414 415
b 369 224 407 408
b 370 406 407 408
b 371 78 406 407
b 372 110 402 403
b 373 57 399 400
b 374 137 396 397
b 375 395 396 397
b 376 220 395 396
b 377 185 392 393
b 378 390 392 393
b 379 40 391 392
b 380 390 391 392
b 381 73 390 391
b 382 252 388 389
b 383 386 388 389
b 384 83 387 388
b 385 386 387 388
b 386 75 386 387
b 387 232 380 381
b 388 130 375 376
b 389 374 375 376
b 390 64 374 375
b 391 245 372 373
b 392 371 372 373
b 393 215 371 372
b 394 179 369 370
b 395 136 363 364
b 396 184 361 362
b 397 360 361 362
b 398 21 360 361
b 399 118 358 359
b 400 356 358 359
b 401 210 357 358
b 402 356 357 358
b 403 235 356 357
b 404 84 354 355
b 405 156 352 353
b 406 153 350 351
b 407 242 347 348
b 408 346 347 348
b 409 99 346 347
b 410 175 344 345
b 411 127 342 343
b 412 241 337 338
b 413 335 337 338
b 414 65 336 337
b 415 335 336 337
b 416 38 335 336
b 417 238 333 334
b 418 247 330 331
b 419 152 326 327
b 420 121 322 323
b 421 194 320 321
b 422 70 317 318
b 423 188 315 316
b 424 310 315 316
b 425 249 314 315
b 426 310 314 315
b 427 163 313 314
b 428 310 313 314
b 429 32 312 313
b 430 310 312 313
b 431 125 311 312
b 432 310 311 312
b 433 212 310 311
b 434 145 308 309
b 435 173 306 307
b 436 138 304 305
b 437 79 301 302
b 438 190 299 300
b 439 201 297 298
b 440 293 297 298
b 441 113 296 297
b 442 293 296 297
b 443 217 295 296
b 444 293 295 296
b 445 221 294 295
b 446 293 294 295
b 447 126 293 294
b 448 257 291 292
b 449 289 291 292
b 450 199 290 291
b 451 289 290 291
b 452 4 289 290
b 453 31 287 288
b 454 286 287 288
b 455 28 286 287
b 456 233 283 284
b 457 209 278 279
b 458 140 275 276
b 459 255 273 274
b 460 81 271 272
b 461 269 271 272
b 462 55 270 271
b 463 269 270 271
b 464 46 269 270
b 465 15 267 268
b 466 26 263 264
b 467 142 261 450
b 468 254 504 505
b 469 223 430 431
b 470 171 555 556
b 471 206 555 556
b 472 206 554 555
b 473 253 554 555
b 474 206 553 554
b 475 69 428 429
b 476 202 428 429
b 477 196 202 429
b 478 86 427 428
b 479 202 427 428
b 480 202 426 427
b 481 228 426 427
b 482 142 449 450
b 483 62 260 261
b 484 142 260 261
b 485 142 259 260
b 486 93 178 624
b 487 93 250 624
b 488 250 623 624
b 489 9 543 544
b 490 16 543 544
b 491 16 544 545
b 492 101 544 545
b 493 16 117 548
b 494 117 548 549
b 495 16 547 548
b 496 193 547 548
b 497 16 546 547
b 498 204 546 547
b 499 16 545 546
b 500 213 545 546
b 501 16 542 543
b 502 72 542 543
b 503 16 541 542
b 504 36 541 542
b 505 16 540 541
b 506 133 540 541
b 507 16 539 540
b 508 191 539 540
b 509 16 538 539
b 510 229 538 539
b 511 16 537 538
b 512 200 537 538
b 513 10 536 537
b 514 16 536 537
b 515 16 535 536
b 516 88 535 536
b 517 16 534 535
b 518 219 534 535
b 519 16 533 534
b 520 47 533 534
b 521 16 532 533
b 522 234 532 533
b 523 16 531 532
b 524 167 531 532
b 525 16 530 531
b 526 105 530 531
b 527 16 529 530
b 528 43 529 530
b 529 16 528 529
b 530 122 528 529
b 531 16 527 528
b 532 157 527 528
b 533 16 526 527
b 534 149 526 527
b 535 16 525 526
1 2
2 3
3 4
4 494
5 468
6 469
7 482
8 485
9 10
10 488
11 12
12 13
13 14
14 535
15 474
16 493
16 60
17 487
17 248
18 480
18 84
19 468
19 65
20 467
20 275
21 466
21 273
22 465
22 262
23 461
23 264
24 459
24 180
25 458
25 179
26 457
26 122
27 456
27 114
28 454
28 110
29 449
29 89
30 440
30 211
31 438
31 238
32 437
32 232
33 436
33 230
34 435
34 231
35 434
35 253
36 424
36 252
37 422
37 247
38 421
38 149
39 420
39 148
40 419
40 200
41 418
41 109
42 417
42 90
43 413
43 216
44 411
44 81
45 410
45 217
46 408
46 239
47 406
47 237
48 405
48 244
49 404
49 263
50 400
50 260
51 397
51 221
52 395
52 221
53 394
53 191
54 392
54 192
55 389
55 126
56 387
56 194
57 383
57 101
58 378
58 96
59 375
59 97
60 373
60 247
61 372
61 249
62 370
62 255
63 357
63 154
64 352
64 113
65 469
65 137
66 471
66 67
67 339
67 243
68 336
68 244
69 333
69 249
70 324
70 253
71 309
71 255
72 307
72 146
73 301
73 191
74 299
74 192
75 298
75 189
76 282
76 125
77 280
77 91
78 279
78 88
79 277
79 97
80 81
81 82
82 217
82 83
83 85
83 84
85 210
85 86
86 92
86 87
87 90
87 88
88 89
90 91
92 102
92 93
93 94
93 98
94 97
94 95
95 96
98 99
98 100
100 101
102 203
102 103
103 115
103 104
104 105
104 112
105 106
105 110
106 108
106 107
108 109
110 111
112 114
112 113
115 193
115 116
116 129
116 117
117 127
117 118
118 124
118 119
119 123
119 120
120 121
120 122
124 126
124 125
127 128
129 188
129 130
130 144
130 131
131 142
131 132
132 133
132 141
133 140
133 134
134 135
134 139
135 136
135 138
136 137
142 143
144 150
144 145
145 146
145 147
147 149
147 148
150 157
150 151
151 152
151 153
153 155
153 154
155 156
157 158
158 161
158 159
159 160
161 162
162 187
162 163
163 164
164 165
165 166
166 167
167 168
168 178
168 170
168 169
170 171
170 175
171 172
172 174
172 173
175 177
175 176
178 181
178 179
179 180
181 182
182 185
182 183
183 220
183 184
185 186
188 189
188 190
190 191
190 192
193 199
193 194
194 195
195 196
195 197
197 198
199 200
199 201
201 202
203 204
203 207
204 205
205 206
207 208
207 209
210 211
210 212
212 216
212 213
213 214
213 215
218 224
218 222
218 269
218 219
219 221
219 220
220 271
222 223
224 225
224 257
225 240
225 226
226 233
226 227
227 228
227 232
228 229
229 231
229 230
233 235
233 234
234 272
235 239
235 236
236 237
236 238
240 241
240 250
241 245
241 242
242 244
242 243
245 246
245 248
246 247
248 249
250 251
250 254
251 252
251 253
254 255
254 256
257 258
257 265
258 264
258 259
259 261
259 260
261 263
261 262
265 266
266 267
267 268
269 270
272 274
272 273
274 275
276 277
277 278
281 282
282 284
283 284
284 286
285 286
286 288
287 288
288 290
289 290
290 292
291 292
292 294
293 294
294 296
295 296
296 297
300 301
301 303
302 303
303 305
304 305
305 306
308 309
309 311
310 311
311 313
312 313
313 315
314 315
315 317
316 317
317 319
318 319
319 321
320 321
321 322
323 324
324 326
325 326
326 328
327 328
328 330
329 330
330 331
332 333
333 334
335 336
336 337
338 339
339 341
340 341
341 343
342 343
343 345
344 345
345 347
346 347
347 349
348 349
349 350
351 352
352 354
353 354
354 355
356 357
357 359
358 359
359 361
360 361
361 363
362 363
363 365
364 365
365 367
366 367
367 368
369 370
370 371
374 375
375 376
377 378
378 380
379 380
380 381
382 383
383 385
384 385
385 386
388 389
389 390
391 392
392 393
396 397
397 398
399 400
400 402
401 402
402 403
407 408
408 409
412 413
413 415
414 415
415 416
423 424
424 426
425 426
426 428
427 428
428 430
429 430
430 432
431 432
432 433
439 440
440 442
441 442
442 444
443 444
444 446
445 446
446 447
448 449
449 451
450 451
451 452
453 454
454 455
460 461
461 463
462 463
463 464
467 484
467 482
470 471
471 472
472 474
472 473
475 476
476 479
476 477
478 479
479 480
480 481
483 484
484 485
486 487
487 488
489 490
490 501
490 491
491 499
491 492
493 495
493 494
495 497
495 496
497 499
497 498
499 500
501 503
501 502
503 505
503 504
505 507
505 506
507 509
507 508
509 511
509 510
511 514
511 512
513 514
514 515
515 517
515 516
517 519
517 518
519 521
519 520
521 523
521 522
523 525
523 524
525 527
525 526
527 529
527 528
529 531
529 530
531 533
531 532
533 535
533 534
